instances/pace2017_tw_bonus/aes_24_4_keyfind_5.gaifman_4.gr
p tw 154 874
1 41
1 115
1 131
2 42
2 116
2 132
3 43
3 117
3 133
4 44
4 118
4 134
5 45
5 119
5 135
6 46
6 120
6 136
7 47
7 121
7 137
8 48
8 122
8 138
9 10
9 11
9 12
9 13
9 14
9 15
9 16
9 17
9 49
9 57
9 131
9 132
9 133
9 134
9 135
9 136
9 137
9 138
10 11
10 12
10 13
10 14
10 15
10 16
10 18
10 50
10 58
10 131
10 132
10 133
10 134
10 135
10 136
10 137
10 138
11 12
11 13
11 14
11 15
11 16
11 19
11 51
11 59
11 131
11 132
11 133
11 134
11 135
11 136
11 137
11 138
12 13
12 14
12 15
12 16
12 20
12 52
12 60
12 131
12 132
12 133
12 134
12 135
12 136
12 137
12 138
13 14
13 15
13 16
13 21
13 53
13 61
13 131
13 132
13 133
13 134
13 135
13 136
13 137
13 138
14 15
14 16
14 22
14 54
14 62
14 131
14 132
14 133
14 134
14 135
14 136
14 137
14 138
15 16
15 23
15 55
15 63
15 131
15 132
15 133
15 134
15 135
15 136
15 137
15 138
16 24
16 56
16 64
16 131
16 132
16 133
16 134
16 135
16 136
16 137
16 138
17 18
17 19
17 20
17 21
17 22
17 23
17 24
17 107
17 108
17 109
17 110
17 111
17 112
17 113
17 114
18 19
18 20
18 21
18 22
18 23
18 24
18 107
18 108
18 109
18 110
18 111
18 112
18 113
18 114
19 20
19 21
19 22
19 23
19 24
19 107
19 108
19 109
19 110
19 111
19 112
19 113
19 114
20 21
20 22
20 23
20 24
20 107
20 108
20 109
20 110
20 111
20 112
20 113
20 114
21 22
21 23
21 24
21 107
21 108
21 109
21 110
21 111
21 112
21 113
21 114
22 23
22 24
22 107
22 108
22 109
22 110
22 111
22 112
22 113
22 114
23 24
23 107
23 108
23 109
23 110
23 111
23 112
23 113
23 114
24 107
24 108
24 109
24 110
24 111
24 112
24 113
24 114
25 26
25 27
25 28
25 29
25 30
25 31
25 32
25 49
26 27
26 28
26 29
26 30
26 31
26 32
26 50
27 28
27 29
27 30
27 31
27 32
27 51
28 29
28 30
28 31
28 32
28 52
29 30
29 31
29 32
29 53
30 31
30 32
30 54
31 32
31 55
32 56
33 34
33 35
33 36
33 37
33 38
33 39
33 40
33 57
33 91
33 92
33 93
33 94
33 95
33 96
33 97
33 98
33 99
34 35
34 36
34 37
34 38
34 39
34 40
34 58
34 91
34 92
34 93
34 94
34 95
34 96
34 97
34 98
34 100
35 36
35 37
35 38
35 39
35 40
35 59
35 91
35 92
35 93
35 94
35 95
35 96
35 97
35 98
35 101
36 37
36 38
36 39
36 40
36 60
36 91
36 92
36 93
36 94
36 95
36 96
36 97
36 98
36 102
37 38
37 39
37 40
37 61
37 91
37 92
37 93
37 94
37 95
37 96
37 97
37 98
37 103
38 39
38 40
38 62
38 91
38 92
38 93
38 94
38 95
38 96
38 97
38 98
38 104
39 40
39 63
39 91
39 92
39 93
39 94
39 95
39 96
39 97
39 98
39 105
40 64
40 91
40 92
40 93
40 94
40 95
40 96
40 97
40 98
40 106
41 49
41 65
41 115
41 123
41 131
41 139
42 50
42 66
42 116
42 124
42 132
42 140
43 51
43 67
43 117
43 125
43 133
43 141
44 52
44 68
44 118
44 126
44 134
44 142
45 53
45 69
45 119
45 127
45 135
45 143
46 54
46 70
46 120
46 128
46 136
46 144
47 55
47 71
47 121
47 129
47 137
47 145
48 56
48 72
48 122
48 130
48 138
48 146
49 57
49 65
49 73
50 58
50 66
50 74
51 59
51 67
51 75
52 60
52 68
52 76
53 61
53 69
53 77
54 62
54 70
54 78
55 63
55 71
55 79
56 64
56 72
56 80
57 58
57 59
57 60
57 61
57 62
57 63
57 64
57 73
57 81
57 99
57 139
57 140
57 141
57 142
57 143
57 144
57 145
57 146
58 59
58 60
58 61
58 62
58 63
58 64
58 74
58 82
58 100
58 139
58 140
58 141
58 142
58 143
58 144
58 145
58 146
59 60
59 61
59 62
59 63
59 64
59 75
59 83
59 101
59 139
59 140
59 141
59 142
59 143
59 144
59 145
59 146
60 61
60 62
60 63
60 64
60 76
60 84
60 102
60 139
60 140
60 141
60 142
60 143
60 144
60 145
60 146
61 62
61 63
61 64
61 77
61 85
61 103
61 139
61 140
61 141
61 142
61 143
61 144
61 145
61 146
62 63
62 64
62 78
62 86
62 104
62 139
62 140
62 141
62 142
62 143
62 144
62 145
62 146
63 64
63 79
63 87
63 105
63 139
63 140
63 141
63 142
63 143
63 144
63 145
63 146
64 80
64 88
64 106
64 139
64 140
64 141
64 142
64 143
64 144
64 145
64 146
65 73
65 123
65 139
65 147
66 74
66 124
66 140
66 148
67 75
67 125
67 141
67 149
68 76
68 126
68 142
68 150
69 77
69 89
69 127
69 143
69 151
70 78
70 128
70 144
70 152
71 79
71 129
71 145
71 153
72 80
72 130
72 146
72 154
73 81
74 82
75 83
76 84
77 85
77 89
77 90
78 86
79 87
80 88
81 82
81 83
81 84
81 85
81 86
81 87
81 88
81 91
81 147
81 148
81 149
81 150
81 151
81 152
81 153
81 154
82 83
82 84
82 85
82 86
82 87
82 88
82 92
82 147
82 148
82 149
82 150
82 151
82 152
82 153
82 154
83 84
83 85
83 86
83 87
83 88
83 93
83 147
83 148
83 149
83 150
83 151
83 152
83 153
83 154
84 85
84 86
84 87
84 88
84 94
84 147
84 148
84 149
84 150
84 151
84 152
84 153
84 154
85 86
85 87
85 88
85 90
85 95
85 147
85 148
85 149
85 150
85 151
85 152
85 153
85 154
86 87
86 88
86 96
86 147
86 148
86 149
86 150
86 151
86 152
86 153
86 154
87 88
87 97
87 147
87 148
87 149
87 150
87 151
87 152
87 153
87 154
88 98
88 147
88 148
88 149
88 150
88 151
88 152
88 153
88 154
89 90
89 151
91 92
91 93
91 94
91 95
91 96
91 97
91 98
92 93
92 94
92 95
92 96
92 97
92 98
93 94
93 95
93 96
93 97
93 98
94 95
94 96
94 97
94 98
95 96
95 97
95 98
96 97
96 98
97 98
99 107
100 108
101 109
102 110
103 111
104 112
105 113
106 114
107 108
107 109
107 110
107 111
107 112
107 113
107 114
108 109
108 110
108 111
108 112
108 113
108 114
109 110
109 111
109 112
109 113
109 114
110 111
110 112
110 113
110 114
111 112
111 113
111 114
112 113
112 114
113 114
115 131
116 132
117 133
118 134
119 135
120 136
121 137
122 138
123 139
124 140
125 141
126 142
127 143
128 144
129 145
130 146
131 132
131 133
131 134
131 135
131 136
131 137
131 138
132 133
132 134
132 135
132 136
132 137
132 138
133 134
133 135
133 136
133 137
133 138
134 135
134 136
134 137
134 138
135 136
135 137
135 138
136 137
136 138
137 138
139 140
139 141
139 142
139 143
139 144
139 145
139 146
140 141
140 142
140 143
140 144
140 145
140 146
141 142
141 143
141 144
141 145
141 146
142 143
142 144
142 145
142 146
143 144
143 145
143 146
144 145
144 146
145 146
147 148
147 149
147 150
147 151
147 152
147 153
147 154
148 149
148 150
148 151
148 152
148 153
148 154
149 150
149 151
149 152
149 153
149 154
150 151
150 152
150 153
150 154
151 152
151 153
151 154
152 153
152 154
153 154
